0000000000000000
0000000000000000
0001000000010000
0011111111110000
0000000000011100
0000000000011100
0000000000001100
0001000000001100
0001000000001100
0001000000001100
0001000000001100
0001000000001100
0001000000001100
0000000000010000
0000000000000000
0000000000000000
